\ LP format - for model browsing. Use MPS format to capture full model detail.
Minimize
  p0 + p1 + p2 + p3 + p4 + p5 + p6
Subject To
 R0: x0,1_3 + x0,2_3 + x0,3_3 + x0,4_3 + x0,5_3 + x0,6_3 + x1,2_3 + x1,3_3
   + x1,4_3 + x1,5_3 + x1,6_3 + x2,3_3 + x2,4_3 + x2,5_3 + x2,6_3 + x3,4_3
   + x3,5_3 + x3,6_3 + x4,5_3 + x4,6_3 + x5,6_3 = 1
 R1: x0,1_8 + x0,2_8 + x0,3_8 + x0,4_8 + x0,5_8 + x0,6_8 + x1,2_8 + x1,3_8
   + x1,4_8 + x1,5_8 + x1,6_8 + x2,3_8 + x2,4_8 + x2,5_8 + x2,6_8 + x3,4_8
   + x3,5_8 + x3,6_8 + x4,5_8 + x4,6_8 + x5,6_8 = 1
 R2: x0,1_9 + x0,2_9 + x0,3_9 + x0,4_9 + x0,5_9 + x0,6_9 + x1,2_9 + x1,3_9
   + x1,4_9 + x1,5_9 + x1,6_9 + x2,3_9 + x2,4_9 + x2,5_9 + x2,6_9 + x3,4_9
   + x3,5_9 + x3,6_9 + x4,5_9 + x4,6_9 + x5,6_9 = 1
 R3: x0,1_13 + x0,2_13 + x0,3_13 + x0,4_13 + x0,5_13 + x0,6_13 + x1,2_13
   + x1,3_13 + x1,4_13 + x1,5_13 + x1,6_13 + x2,3_13 + x2,4_13 + x2,5_13
   + x2,6_13 + x3,4_13 + x3,5_13 + x3,6_13 + x4,5_13 + x4,6_13 + x5,6_13
   = 1
 R4: x0,1_14 + x0,2_14 + x0,3_14 + x0,4_14 + x0,5_14 + x0,6_14 + x1,2_14
   + x1,3_14 + x1,4_14 + x1,5_14 + x1,6_14 + x2,3_14 + x2,4_14 + x2,5_14
   + x2,6_14 + x3,4_14 + x3,5_14 + x3,6_14 + x4,5_14 + x4,6_14 + x5,6_14
   = 1
 R5: x0,1_18 + x0,2_18 + x0,3_18 + x0,4_18 + x0,5_18 + x0,6_18 + x1,2_18
   + x1,3_18 + x1,4_18 + x1,5_18 + x1,6_18 + x2,3_18 + x2,4_18 + x2,5_18
   + x2,6_18 + x3,4_18 + x3,5_18 + x3,6_18 + x4,5_18 + x4,6_18 + x5,6_18
   = 1
 R6: x0,1_30 + x0,2_30 + x0,3_30 + x0,4_30 + x0,5_30 + x0,6_30 + x1,2_30
   + x1,3_30 + x1,4_30 + x1,5_30 + x1,6_30 + x2,3_30 + x2,4_30 + x2,5_30
   + x2,6_30 + x3,4_30 + x3,5_30 + x3,6_30 + x4,5_30 + x4,6_30 + x5,6_30
   = 1
 R7: x0,1_31 + x0,2_31 + x0,3_31 + x0,4_31 + x0,5_31 + x0,6_31 + x1,2_31
   + x1,3_31 + x1,4_31 + x1,5_31 + x1,6_31 + x2,3_31 + x2,4_31 + x2,5_31
   + x2,6_31 + x3,4_31 + x3,5_31 + x3,6_31 + x4,5_31 + x4,6_31 + x5,6_31
   = 1
 R8: x0,1_40 + x0,2_40 + x0,3_40 + x0,4_40 + x0,5_40 + x0,6_40 + x1,2_40
   + x1,3_40 + x1,4_40 + x1,5_40 + x1,6_40 + x2,3_40 + x2,4_40 + x2,5_40
   + x2,6_40 + x3,4_40 + x3,5_40 + x3,6_40 + x4,5_40 + x4,6_40 + x5,6_40
   = 1
 R9: x0,1_45 + x0,2_45 + x0,3_45 + x0,4_45 + x0,5_45 + x0,6_45 + x1,2_45
   + x1,3_45 + x1,4_45 + x1,5_45 + x1,6_45 + x2,3_45 + x2,4_45 + x2,5_45
   + x2,6_45 + x3,4_45 + x3,5_45 + x3,6_45 + x4,5_45 + x4,6_45 + x5,6_45
   = 1
 R10: x0,1_58 + x0,2_58 + x0,3_58 + x0,4_58 + x0,5_58 + x0,6_58 + x1,2_58
   + x1,3_58 + x1,4_58 + x1,5_58 + x1,6_58 + x2,3_58 + x2,4_58 + x2,5_58
   + x2,6_58 + x3,4_58 + x3,5_58 + x3,6_58 + x4,5_58 + x4,6_58 + x5,6_58
   = 1
 R11: x0,1_59 + x0,2_59 + x0,3_59 + x0,4_59 + x0,5_59 + x0,6_59 + x1,2_59
   + x1,3_59 + x1,4_59 + x1,5_59 + x1,6_59 + x2,3_59 + x2,4_59 + x2,5_59
   + x2,6_59 + x3,4_59 + x3,5_59 + x3,6_59 + x4,5_59 + x4,6_59 + x5,6_59
   = 1
 R12: x0,1_62 + x0,2_62 + x0,3_62 + x0,4_62 + x0,5_62 + x0,6_62 + x1,2_62
   + x1,3_62 + x1,4_62 + x1,5_62 + x1,6_62 + x2,3_62 + x2,4_62 + x2,5_62
   + x2,6_62 + x3,4_62 + x3,5_62 + x3,6_62 + x4,5_62 + x4,6_62 + x5,6_62
   = 1
 R13: x0,1_67 + x0,2_67 + x0,3_67 + x0,4_67 + x0,5_67 + x0,6_67 + x1,2_67
   + x1,3_67 + x1,4_67 + x1,5_67 + x1,6_67 + x2,3_67 + x2,4_67 + x2,5_67
   + x2,6_67 + x3,4_67 + x3,5_67 + x3,6_67 + x4,5_67 + x4,6_67 + x5,6_67
   = 1
 R14: x0,1_3 + x0,1_8 + x0,1_9 + x0,1_13 + x0,1_14 + x0,1_18 + x0,1_30
   + x0,1_31 + x0,1_40 + x0,1_45 + x0,1_58 + x0,1_59 + x0,1_62 + x0,1_67
   <= 1
 R15: x0,2_3 + x0,2_8 + x0,2_9 + x0,2_13 + x0,2_14 + x0,2_18 + x0,2_30
   + x0,2_31 + x0,2_40 + x0,2_45 + x0,2_58 + x0,2_59 + x0,2_62 + x0,2_67
   <= 1
 R16: x0,3_3 + x0,3_8 + x0,3_9 + x0,3_13 + x0,3_14 + x0,3_18 + x0,3_30
   + x0,3_31 + x0,3_40 + x0,3_45 + x0,3_58 + x0,3_59 + x0,3_62 + x0,3_67
   <= 1
 R17: x0,4_3 + x0,4_8 + x0,4_9 + x0,4_13 + x0,4_14 + x0,4_18 + x0,4_30
   + x0,4_31 + x0,4_40 + x0,4_45 + x0,4_58 + x0,4_59 + x0,4_62 + x0,4_67
   <= 1
 R18: x0,5_3 + x0,5_8 + x0,5_9 + x0,5_13 + x0,5_14 + x0,5_18 + x0,5_30
   + x0,5_31 + x0,5_40 + x0,5_45 + x0,5_58 + x0,5_59 + x0,5_62 + x0,5_67
   <= 1
 R19: x0,6_3 + x0,6_8 + x0,6_9 + x0,6_13 + x0,6_14 + x0,6_18 + x0,6_30
   + x0,6_31 + x0,6_40 + x0,6_45 + x0,6_58 + x0,6_59 + x0,6_62 + x0,6_67
   <= 1
 R20: x1,2_3 + x1,2_8 + x1,2_9 + x1,2_13 + x1,2_14 + x1,2_18 + x1,2_30
   + x1,2_31 + x1,2_40 + x1,2_45 + x1,2_58 + x1,2_59 + x1,2_62 + x1,2_67
   <= 1
 R21: x1,3_3 + x1,3_8 + x1,3_9 + x1,3_13 + x1,3_14 + x1,3_18 + x1,3_30
   + x1,3_31 + x1,3_40 + x1,3_45 + x1,3_58 + x1,3_59 + x1,3_62 + x1,3_67
   <= 1
 R22: x1,4_3 + x1,4_8 + x1,4_9 + x1,4_13 + x1,4_14 + x1,4_18 + x1,4_30
   + x1,4_31 + x1,4_40 + x1,4_45 + x1,4_58 + x1,4_59 + x1,4_62 + x1,4_67
   <= 1
 R23: x1,5_3 + x1,5_8 + x1,5_9 + x1,5_13 + x1,5_14 + x1,5_18 + x1,5_30
   + x1,5_31 + x1,5_40 + x1,5_45 + x1,5_58 + x1,5_59 + x1,5_62 + x1,5_67
   <= 1
 R24: x1,6_3 + x1,6_8 + x1,6_9 + x1,6_13 + x1,6_14 + x1,6_18 + x1,6_30
   + x1,6_31 + x1,6_40 + x1,6_45 + x1,6_58 + x1,6_59 + x1,6_62 + x1,6_67
   <= 1
 R25: x2,3_3 + x2,3_8 + x2,3_9 + x2,3_13 + x2,3_14 + x2,3_18 + x2,3_30
   + x2,3_31 + x2,3_40 + x2,3_45 + x2,3_58 + x2,3_59 + x2,3_62 + x2,3_67
   <= 1
 R26: x2,4_3 + x2,4_8 + x2,4_9 + x2,4_13 + x2,4_14 + x2,4_18 + x2,4_30
   + x2,4_31 + x2,4_40 + x2,4_45 + x2,4_58 + x2,4_59 + x2,4_62 + x2,4_67
   <= 1
 R27: x2,5_3 + x2,5_8 + x2,5_9 + x2,5_13 + x2,5_14 + x2,5_18 + x2,5_30
   + x2,5_31 + x2,5_40 + x2,5_45 + x2,5_58 + x2,5_59 + x2,5_62 + x2,5_67
   <= 1
 R28: x2,6_3 + x2,6_8 + x2,6_9 + x2,6_13 + x2,6_14 + x2,6_18 + x2,6_30
   + x2,6_31 + x2,6_40 + x2,6_45 + x2,6_58 + x2,6_59 + x2,6_62 + x2,6_67
   <= 1
 R29: x3,4_3 + x3,4_8 + x3,4_9 + x3,4_13 + x3,4_14 + x3,4_18 + x3,4_30
   + x3,4_31 + x3,4_40 + x3,4_45 + x3,4_58 + x3,4_59 + x3,4_62 + x3,4_67
   <= 1
 R30: x3,5_3 + x3,5_8 + x3,5_9 + x3,5_13 + x3,5_14 + x3,5_18 + x3,5_30
   + x3,5_31 + x3,5_40 + x3,5_45 + x3,5_58 + x3,5_59 + x3,5_62 + x3,5_67
   <= 1
 R31: x3,6_3 + x3,6_8 + x3,6_9 + x3,6_13 + x3,6_14 + x3,6_18 + x3,6_30
   + x3,6_31 + x3,6_40 + x3,6_45 + x3,6_58 + x3,6_59 + x3,6_62 + x3,6_67
   <= 1
 R32: x4,5_3 + x4,5_8 + x4,5_9 + x4,5_13 + x4,5_14 + x4,5_18 + x4,5_30
   + x4,5_31 + x4,5_40 + x4,5_45 + x4,5_58 + x4,5_59 + x4,5_62 + x4,5_67
   <= 1
 R33: x4,6_3 + x4,6_8 + x4,6_9 + x4,6_13 + x4,6_14 + x4,6_18 + x4,6_30
   + x4,6_31 + x4,6_40 + x4,6_45 + x4,6_58 + x4,6_59 + x4,6_62 + x4,6_67
   <= 1
 R34: x5,6_3 + x5,6_8 + x5,6_9 + x5,6_13 + x5,6_14 + x5,6_18 + x5,6_30
   + x5,6_31 + x5,6_40 + x5,6_45 + x5,6_58 + x5,6_59 + x5,6_62 + x5,6_67
   <= 1
 R35: p0 - p1 <= -1
 R36: - 3 x0,1_3 - p0 + p1 >= 0
 R37: 457 x0,1_3 - p0 + p1 <= 460
 R38: - 8 x0,1_8 - p0 + p1 >= 0
 R39: 457 x0,1_8 - p0 + p1 <= 465
 R40: - 9 x0,1_9 - p0 + p1 >= 0
 R41: 457 x0,1_9 - p0 + p1 <= 466
 R42: - 13 x0,1_13 - p0 + p1 >= 0
 R43: 457 x0,1_13 - p0 + p1 <= 470
 R44: - 14 x0,1_14 - p0 + p1 >= 0
 R45: 457 x0,1_14 - p0 + p1 <= 471
 R46: - 18 x0,1_18 - p0 + p1 >= 0
 R47: 457 x0,1_18 - p0 + p1 <= 475
 R48: - 30 x0,1_30 - p0 + p1 >= 0
 R49: 457 x0,1_30 - p0 + p1 <= 487
 R50: - 31 x0,1_31 - p0 + p1 >= 0
 R51: 457 x0,1_31 - p0 + p1 <= 488
 R52: - 40 x0,1_40 - p0 + p1 >= 0
 R53: 457 x0,1_40 - p0 + p1 <= 497
 R54: - 45 x0,1_45 - p0 + p1 >= 0
 R55: 457 x0,1_45 - p0 + p1 <= 502
 R56: - 58 x0,1_58 - p0 + p1 >= 0
 R57: 457 x0,1_58 - p0 + p1 <= 515
 R58: - 59 x0,1_59 - p0 + p1 >= 0
 R59: 457 x0,1_59 - p0 + p1 <= 516
 R60: - 62 x0,1_62 - p0 + p1 >= 0
 R61: 457 x0,1_62 - p0 + p1 <= 519
 R62: - 67 x0,1_67 - p0 + p1 >= 0
 R63: 457 x0,1_67 - p0 + p1 <= 524
 R64: p0 - p2 <= -1
 R65: - 3 x0,2_3 - p0 + p2 >= 0
 R66: 457 x0,2_3 - p0 + p2 <= 460
 R67: - 8 x0,2_8 - p0 + p2 >= 0
 R68: 457 x0,2_8 - p0 + p2 <= 465
 R69: - 9 x0,2_9 - p0 + p2 >= 0
 R70: 457 x0,2_9 - p0 + p2 <= 466
 R71: - 13 x0,2_13 - p0 + p2 >= 0
 R72: 457 x0,2_13 - p0 + p2 <= 470
 R73: - 14 x0,2_14 - p0 + p2 >= 0
 R74: 457 x0,2_14 - p0 + p2 <= 471
 R75: - 18 x0,2_18 - p0 + p2 >= 0
 R76: 457 x0,2_18 - p0 + p2 <= 475
 R77: - 30 x0,2_30 - p0 + p2 >= 0
 R78: 457 x0,2_30 - p0 + p2 <= 487
 R79: - 31 x0,2_31 - p0 + p2 >= 0
 R80: 457 x0,2_31 - p0 + p2 <= 488
 R81: - 40 x0,2_40 - p0 + p2 >= 0
 R82: 457 x0,2_40 - p0 + p2 <= 497
 R83: - 45 x0,2_45 - p0 + p2 >= 0
 R84: 457 x0,2_45 - p0 + p2 <= 502
 R85: - 58 x0,2_58 - p0 + p2 >= 0
 R86: 457 x0,2_58 - p0 + p2 <= 515
 R87: - 59 x0,2_59 - p0 + p2 >= 0
 R88: 457 x0,2_59 - p0 + p2 <= 516
 R89: - 62 x0,2_62 - p0 + p2 >= 0
 R90: 457 x0,2_62 - p0 + p2 <= 519
 R91: - 67 x0,2_67 - p0 + p2 >= 0
 R92: 457 x0,2_67 - p0 + p2 <= 524
 R93: p0 - p3 <= -1
 R94: - 3 x0,3_3 - p0 + p3 >= 0
 R95: 457 x0,3_3 - p0 + p3 <= 460
 R96: - 8 x0,3_8 - p0 + p3 >= 0
 R97: 457 x0,3_8 - p0 + p3 <= 465
 R98: - 9 x0,3_9 - p0 + p3 >= 0
 R99: 457 x0,3_9 - p0 + p3 <= 466
 R100: - 13 x0,3_13 - p0 + p3 >= 0
 R101: 457 x0,3_13 - p0 + p3 <= 470
 R102: - 14 x0,3_14 - p0 + p3 >= 0
 R103: 457 x0,3_14 - p0 + p3 <= 471
 R104: - 18 x0,3_18 - p0 + p3 >= 0
 R105: 457 x0,3_18 - p0 + p3 <= 475
 R106: - 30 x0,3_30 - p0 + p3 >= 0
 R107: 457 x0,3_30 - p0 + p3 <= 487
 R108: - 31 x0,3_31 - p0 + p3 >= 0
 R109: 457 x0,3_31 - p0 + p3 <= 488
 R110: - 40 x0,3_40 - p0 + p3 >= 0
 R111: 457 x0,3_40 - p0 + p3 <= 497
 R112: - 45 x0,3_45 - p0 + p3 >= 0
 R113: 457 x0,3_45 - p0 + p3 <= 502
 R114: - 58 x0,3_58 - p0 + p3 >= 0
 R115: 457 x0,3_58 - p0 + p3 <= 515
 R116: - 59 x0,3_59 - p0 + p3 >= 0
 R117: 457 x0,3_59 - p0 + p3 <= 516
 R118: - 62 x0,3_62 - p0 + p3 >= 0
 R119: 457 x0,3_62 - p0 + p3 <= 519
 R120: - 67 x0,3_67 - p0 + p3 >= 0
 R121: 457 x0,3_67 - p0 + p3 <= 524
 R122: p0 - p4 <= -1
 R123: - 3 x0,4_3 - p0 + p4 >= 0
 R124: 457 x0,4_3 - p0 + p4 <= 460
 R125: - 8 x0,4_8 - p0 + p4 >= 0
 R126: 457 x0,4_8 - p0 + p4 <= 465
 R127: - 9 x0,4_9 - p0 + p4 >= 0
 R128: 457 x0,4_9 - p0 + p4 <= 466
 R129: - 13 x0,4_13 - p0 + p4 >= 0
 R130: 457 x0,4_13 - p0 + p4 <= 470
 R131: - 14 x0,4_14 - p0 + p4 >= 0
 R132: 457 x0,4_14 - p0 + p4 <= 471
 R133: - 18 x0,4_18 - p0 + p4 >= 0
 R134: 457 x0,4_18 - p0 + p4 <= 475
 R135: - 30 x0,4_30 - p0 + p4 >= 0
 R136: 457 x0,4_30 - p0 + p4 <= 487
 R137: - 31 x0,4_31 - p0 + p4 >= 0
 R138: 457 x0,4_31 - p0 + p4 <= 488
 R139: - 40 x0,4_40 - p0 + p4 >= 0
 R140: 457 x0,4_40 - p0 + p4 <= 497
 R141: - 45 x0,4_45 - p0 + p4 >= 0
 R142: 457 x0,4_45 - p0 + p4 <= 502
 R143: - 58 x0,4_58 - p0 + p4 >= 0
 R144: 457 x0,4_58 - p0 + p4 <= 515
 R145: - 59 x0,4_59 - p0 + p4 >= 0
 R146: 457 x0,4_59 - p0 + p4 <= 516
 R147: - 62 x0,4_62 - p0 + p4 >= 0
 R148: 457 x0,4_62 - p0 + p4 <= 519
 R149: - 67 x0,4_67 - p0 + p4 >= 0
 R150: 457 x0,4_67 - p0 + p4 <= 524
 R151: p0 - p5 <= -1
 R152: - 3 x0,5_3 - p0 + p5 >= 0
 R153: 457 x0,5_3 - p0 + p5 <= 460
 R154: - 8 x0,5_8 - p0 + p5 >= 0
 R155: 457 x0,5_8 - p0 + p5 <= 465
 R156: - 9 x0,5_9 - p0 + p5 >= 0
 R157: 457 x0,5_9 - p0 + p5 <= 466
 R158: - 13 x0,5_13 - p0 + p5 >= 0
 R159: 457 x0,5_13 - p0 + p5 <= 470
 R160: - 14 x0,5_14 - p0 + p5 >= 0
 R161: 457 x0,5_14 - p0 + p5 <= 471
 R162: - 18 x0,5_18 - p0 + p5 >= 0
 R163: 457 x0,5_18 - p0 + p5 <= 475
 R164: - 30 x0,5_30 - p0 + p5 >= 0
 R165: 457 x0,5_30 - p0 + p5 <= 487
 R166: - 31 x0,5_31 - p0 + p5 >= 0
 R167: 457 x0,5_31 - p0 + p5 <= 488
 R168: - 40 x0,5_40 - p0 + p5 >= 0
 R169: 457 x0,5_40 - p0 + p5 <= 497
 R170: - 45 x0,5_45 - p0 + p5 >= 0
 R171: 457 x0,5_45 - p0 + p5 <= 502
 R172: - 58 x0,5_58 - p0 + p5 >= 0
 R173: 457 x0,5_58 - p0 + p5 <= 515
 R174: - 59 x0,5_59 - p0 + p5 >= 0
 R175: 457 x0,5_59 - p0 + p5 <= 516
 R176: - 62 x0,5_62 - p0 + p5 >= 0
 R177: 457 x0,5_62 - p0 + p5 <= 519
 R178: - 67 x0,5_67 - p0 + p5 >= 0
 R179: 457 x0,5_67 - p0 + p5 <= 524
 R180: p0 - p6 <= -1
 R181: - 3 x0,6_3 - p0 + p6 >= 0
 R182: 457 x0,6_3 - p0 + p6 <= 460
 R183: - 8 x0,6_8 - p0 + p6 >= 0
 R184: 457 x0,6_8 - p0 + p6 <= 465
 R185: - 9 x0,6_9 - p0 + p6 >= 0
 R186: 457 x0,6_9 - p0 + p6 <= 466
 R187: - 13 x0,6_13 - p0 + p6 >= 0
 R188: 457 x0,6_13 - p0 + p6 <= 470
 R189: - 14 x0,6_14 - p0 + p6 >= 0
 R190: 457 x0,6_14 - p0 + p6 <= 471
 R191: - 18 x0,6_18 - p0 + p6 >= 0
 R192: 457 x0,6_18 - p0 + p6 <= 475
 R193: - 30 x0,6_30 - p0 + p6 >= 0
 R194: 457 x0,6_30 - p0 + p6 <= 487
 R195: - 31 x0,6_31 - p0 + p6 >= 0
 R196: 457 x0,6_31 - p0 + p6 <= 488
 R197: - 40 x0,6_40 - p0 + p6 >= 0
 R198: 457 x0,6_40 - p0 + p6 <= 497
 R199: - 45 x0,6_45 - p0 + p6 >= 0
 R200: 457 x0,6_45 - p0 + p6 <= 502
 R201: - 58 x0,6_58 - p0 + p6 >= 0
 R202: 457 x0,6_58 - p0 + p6 <= 515
 R203: - 59 x0,6_59 - p0 + p6 >= 0
 R204: 457 x0,6_59 - p0 + p6 <= 516
 R205: - 62 x0,6_62 - p0 + p6 >= 0
 R206: 457 x0,6_62 - p0 + p6 <= 519
 R207: - 67 x0,6_67 - p0 + p6 >= 0
 R208: 457 x0,6_67 - p0 + p6 <= 524
 R209: p1 - p2 <= -1
 R210: - 3 x1,2_3 - p1 + p2 >= 0
 R211: 457 x1,2_3 - p1 + p2 <= 460
 R212: - 8 x1,2_8 - p1 + p2 >= 0
 R213: 457 x1,2_8 - p1 + p2 <= 465
 R214: - 9 x1,2_9 - p1 + p2 >= 0
 R215: 457 x1,2_9 - p1 + p2 <= 466
 R216: - 13 x1,2_13 - p1 + p2 >= 0
 R217: 457 x1,2_13 - p1 + p2 <= 470
 R218: - 14 x1,2_14 - p1 + p2 >= 0
 R219: 457 x1,2_14 - p1 + p2 <= 471
 R220: - 18 x1,2_18 - p1 + p2 >= 0
 R221: 457 x1,2_18 - p1 + p2 <= 475
 R222: - 30 x1,2_30 - p1 + p2 >= 0
 R223: 457 x1,2_30 - p1 + p2 <= 487
 R224: - 31 x1,2_31 - p1 + p2 >= 0
 R225: 457 x1,2_31 - p1 + p2 <= 488
 R226: - 40 x1,2_40 - p1 + p2 >= 0
 R227: 457 x1,2_40 - p1 + p2 <= 497
 R228: - 45 x1,2_45 - p1 + p2 >= 0
 R229: 457 x1,2_45 - p1 + p2 <= 502
 R230: - 58 x1,2_58 - p1 + p2 >= 0
 R231: 457 x1,2_58 - p1 + p2 <= 515
 R232: - 59 x1,2_59 - p1 + p2 >= 0
 R233: 457 x1,2_59 - p1 + p2 <= 516
 R234: - 62 x1,2_62 - p1 + p2 >= 0
 R235: 457 x1,2_62 - p1 + p2 <= 519
 R236: - 67 x1,2_67 - p1 + p2 >= 0
 R237: 457 x1,2_67 - p1 + p2 <= 524
 R238: p1 - p3 <= -1
 R239: - 3 x1,3_3 - p1 + p3 >= 0
 R240: 457 x1,3_3 - p1 + p3 <= 460
 R241: - 8 x1,3_8 - p1 + p3 >= 0
 R242: 457 x1,3_8 - p1 + p3 <= 465
 R243: - 9 x1,3_9 - p1 + p3 >= 0
 R244: 457 x1,3_9 - p1 + p3 <= 466
 R245: - 13 x1,3_13 - p1 + p3 >= 0
 R246: 457 x1,3_13 - p1 + p3 <= 470
 R247: - 14 x1,3_14 - p1 + p3 >= 0
 R248: 457 x1,3_14 - p1 + p3 <= 471
 R249: - 18 x1,3_18 - p1 + p3 >= 0
 R250: 457 x1,3_18 - p1 + p3 <= 475
 R251: - 30 x1,3_30 - p1 + p3 >= 0
 R252: 457 x1,3_30 - p1 + p3 <= 487
 R253: - 31 x1,3_31 - p1 + p3 >= 0
 R254: 457 x1,3_31 - p1 + p3 <= 488
 R255: - 40 x1,3_40 - p1 + p3 >= 0
 R256: 457 x1,3_40 - p1 + p3 <= 497
 R257: - 45 x1,3_45 - p1 + p3 >= 0
 R258: 457 x1,3_45 - p1 + p3 <= 502
 R259: - 58 x1,3_58 - p1 + p3 >= 0
 R260: 457 x1,3_58 - p1 + p3 <= 515
 R261: - 59 x1,3_59 - p1 + p3 >= 0
 R262: 457 x1,3_59 - p1 + p3 <= 516
 R263: - 62 x1,3_62 - p1 + p3 >= 0
 R264: 457 x1,3_62 - p1 + p3 <= 519
 R265: - 67 x1,3_67 - p1 + p3 >= 0
 R266: 457 x1,3_67 - p1 + p3 <= 524
 R267: p1 - p4 <= -1
 R268: - 3 x1,4_3 - p1 + p4 >= 0
 R269: 457 x1,4_3 - p1 + p4 <= 460
 R270: - 8 x1,4_8 - p1 + p4 >= 0
 R271: 457 x1,4_8 - p1 + p4 <= 465
 R272: - 9 x1,4_9 - p1 + p4 >= 0
 R273: 457 x1,4_9 - p1 + p4 <= 466
 R274: - 13 x1,4_13 - p1 + p4 >= 0
 R275: 457 x1,4_13 - p1 + p4 <= 470
 R276: - 14 x1,4_14 - p1 + p4 >= 0
 R277: 457 x1,4_14 - p1 + p4 <= 471
 R278: - 18 x1,4_18 - p1 + p4 >= 0
 R279: 457 x1,4_18 - p1 + p4 <= 475
 R280: - 30 x1,4_30 - p1 + p4 >= 0
 R281: 457 x1,4_30 - p1 + p4 <= 487
 R282: - 31 x1,4_31 - p1 + p4 >= 0
 R283: 457 x1,4_31 - p1 + p4 <= 488
 R284: - 40 x1,4_40 - p1 + p4 >= 0
 R285: 457 x1,4_40 - p1 + p4 <= 497
 R286: - 45 x1,4_45 - p1 + p4 >= 0
 R287: 457 x1,4_45 - p1 + p4 <= 502
 R288: - 58 x1,4_58 - p1 + p4 >= 0
 R289: 457 x1,4_58 - p1 + p4 <= 515
 R290: - 59 x1,4_59 - p1 + p4 >= 0
 R291: 457 x1,4_59 - p1 + p4 <= 516
 R292: - 62 x1,4_62 - p1 + p4 >= 0
 R293: 457 x1,4_62 - p1 + p4 <= 519
 R294: - 67 x1,4_67 - p1 + p4 >= 0
 R295: 457 x1,4_67 - p1 + p4 <= 524
 R296: p1 - p5 <= -1
 R297: - 3 x1,5_3 - p1 + p5 >= 0
 R298: 457 x1,5_3 - p1 + p5 <= 460
 R299: - 8 x1,5_8 - p1 + p5 >= 0
 R300: 457 x1,5_8 - p1 + p5 <= 465
 R301: - 9 x1,5_9 - p1 + p5 >= 0
 R302: 457 x1,5_9 - p1 + p5 <= 466
 R303: - 13 x1,5_13 - p1 + p5 >= 0
 R304: 457 x1,5_13 - p1 + p5 <= 470
 R305: - 14 x1,5_14 - p1 + p5 >= 0
 R306: 457 x1,5_14 - p1 + p5 <= 471
 R307: - 18 x1,5_18 - p1 + p5 >= 0
 R308: 457 x1,5_18 - p1 + p5 <= 475
 R309: - 30 x1,5_30 - p1 + p5 >= 0
 R310: 457 x1,5_30 - p1 + p5 <= 487
 R311: - 31 x1,5_31 - p1 + p5 >= 0
 R312: 457 x1,5_31 - p1 + p5 <= 488
 R313: - 40 x1,5_40 - p1 + p5 >= 0
 R314: 457 x1,5_40 - p1 + p5 <= 497
 R315: - 45 x1,5_45 - p1 + p5 >= 0
 R316: 457 x1,5_45 - p1 + p5 <= 502
 R317: - 58 x1,5_58 - p1 + p5 >= 0
 R318: 457 x1,5_58 - p1 + p5 <= 515
 R319: - 59 x1,5_59 - p1 + p5 >= 0
 R320: 457 x1,5_59 - p1 + p5 <= 516
 R321: - 62 x1,5_62 - p1 + p5 >= 0
 R322: 457 x1,5_62 - p1 + p5 <= 519
 R323: - 67 x1,5_67 - p1 + p5 >= 0
 R324: 457 x1,5_67 - p1 + p5 <= 524
 R325: p1 - p6 <= -1
 R326: - 3 x1,6_3 - p1 + p6 >= 0
 R327: 457 x1,6_3 - p1 + p6 <= 460
 R328: - 8 x1,6_8 - p1 + p6 >= 0
 R329: 457 x1,6_8 - p1 + p6 <= 465
 R330: - 9 x1,6_9 - p1 + p6 >= 0
 R331: 457 x1,6_9 - p1 + p6 <= 466
 R332: - 13 x1,6_13 - p1 + p6 >= 0
 R333: 457 x1,6_13 - p1 + p6 <= 470
 R334: - 14 x1,6_14 - p1 + p6 >= 0
 R335: 457 x1,6_14 - p1 + p6 <= 471
 R336: - 18 x1,6_18 - p1 + p6 >= 0
 R337: 457 x1,6_18 - p1 + p6 <= 475
 R338: - 30 x1,6_30 - p1 + p6 >= 0
 R339: 457 x1,6_30 - p1 + p6 <= 487
 R340: - 31 x1,6_31 - p1 + p6 >= 0
 R341: 457 x1,6_31 - p1 + p6 <= 488
 R342: - 40 x1,6_40 - p1 + p6 >= 0
 R343: 457 x1,6_40 - p1 + p6 <= 497
 R344: - 45 x1,6_45 - p1 + p6 >= 0
 R345: 457 x1,6_45 - p1 + p6 <= 502
 R346: - 58 x1,6_58 - p1 + p6 >= 0
 R347: 457 x1,6_58 - p1 + p6 <= 515
 R348: - 59 x1,6_59 - p1 + p6 >= 0
 R349: 457 x1,6_59 - p1 + p6 <= 516
 R350: - 62 x1,6_62 - p1 + p6 >= 0
 R351: 457 x1,6_62 - p1 + p6 <= 519
 R352: - 67 x1,6_67 - p1 + p6 >= 0
 R353: 457 x1,6_67 - p1 + p6 <= 524
 R354: p2 - p3 <= -1
 R355: - 3 x2,3_3 - p2 + p3 >= 0
 R356: 457 x2,3_3 - p2 + p3 <= 460
 R357: - 8 x2,3_8 - p2 + p3 >= 0
 R358: 457 x2,3_8 - p2 + p3 <= 465
 R359: - 9 x2,3_9 - p2 + p3 >= 0
 R360: 457 x2,3_9 - p2 + p3 <= 466
 R361: - 13 x2,3_13 - p2 + p3 >= 0
 R362: 457 x2,3_13 - p2 + p3 <= 470
 R363: - 14 x2,3_14 - p2 + p3 >= 0
 R364: 457 x2,3_14 - p2 + p3 <= 471
 R365: - 18 x2,3_18 - p2 + p3 >= 0
 R366: 457 x2,3_18 - p2 + p3 <= 475
 R367: - 30 x2,3_30 - p2 + p3 >= 0
 R368: 457 x2,3_30 - p2 + p3 <= 487
 R369: - 31 x2,3_31 - p2 + p3 >= 0
 R370: 457 x2,3_31 - p2 + p3 <= 488
 R371: - 40 x2,3_40 - p2 + p3 >= 0
 R372: 457 x2,3_40 - p2 + p3 <= 497
 R373: - 45 x2,3_45 - p2 + p3 >= 0
 R374: 457 x2,3_45 - p2 + p3 <= 502
 R375: - 58 x2,3_58 - p2 + p3 >= 0
 R376: 457 x2,3_58 - p2 + p3 <= 515
 R377: - 59 x2,3_59 - p2 + p3 >= 0
 R378: 457 x2,3_59 - p2 + p3 <= 516
 R379: - 62 x2,3_62 - p2 + p3 >= 0
 R380: 457 x2,3_62 - p2 + p3 <= 519
 R381: - 67 x2,3_67 - p2 + p3 >= 0
 R382: 457 x2,3_67 - p2 + p3 <= 524
 R383: p2 - p4 <= -1
 R384: - 3 x2,4_3 - p2 + p4 >= 0
 R385: 457 x2,4_3 - p2 + p4 <= 460
 R386: - 8 x2,4_8 - p2 + p4 >= 0
 R387: 457 x2,4_8 - p2 + p4 <= 465
 R388: - 9 x2,4_9 - p2 + p4 >= 0
 R389: 457 x2,4_9 - p2 + p4 <= 466
 R390: - 13 x2,4_13 - p2 + p4 >= 0
 R391: 457 x2,4_13 - p2 + p4 <= 470
 R392: - 14 x2,4_14 - p2 + p4 >= 0
 R393: 457 x2,4_14 - p2 + p4 <= 471
 R394: - 18 x2,4_18 - p2 + p4 >= 0
 R395: 457 x2,4_18 - p2 + p4 <= 475
 R396: - 30 x2,4_30 - p2 + p4 >= 0
 R397: 457 x2,4_30 - p2 + p4 <= 487
 R398: - 31 x2,4_31 - p2 + p4 >= 0
 R399: 457 x2,4_31 - p2 + p4 <= 488
 R400: - 40 x2,4_40 - p2 + p4 >= 0
 R401: 457 x2,4_40 - p2 + p4 <= 497
 R402: - 45 x2,4_45 - p2 + p4 >= 0
 R403: 457 x2,4_45 - p2 + p4 <= 502
 R404: - 58 x2,4_58 - p2 + p4 >= 0
 R405: 457 x2,4_58 - p2 + p4 <= 515
 R406: - 59 x2,4_59 - p2 + p4 >= 0
 R407: 457 x2,4_59 - p2 + p4 <= 516
 R408: - 62 x2,4_62 - p2 + p4 >= 0
 R409: 457 x2,4_62 - p2 + p4 <= 519
 R410: - 67 x2,4_67 - p2 + p4 >= 0
 R411: 457 x2,4_67 - p2 + p4 <= 524
 R412: p2 - p5 <= -1
 R413: - 3 x2,5_3 - p2 + p5 >= 0
 R414: 457 x2,5_3 - p2 + p5 <= 460
 R415: - 8 x2,5_8 - p2 + p5 >= 0
 R416: 457 x2,5_8 - p2 + p5 <= 465
 R417: - 9 x2,5_9 - p2 + p5 >= 0
 R418: 457 x2,5_9 - p2 + p5 <= 466
 R419: - 13 x2,5_13 - p2 + p5 >= 0
 R420: 457 x2,5_13 - p2 + p5 <= 470
 R421: - 14 x2,5_14 - p2 + p5 >= 0
 R422: 457 x2,5_14 - p2 + p5 <= 471
 R423: - 18 x2,5_18 - p2 + p5 >= 0
 R424: 457 x2,5_18 - p2 + p5 <= 475
 R425: - 30 x2,5_30 - p2 + p5 >= 0
 R426: 457 x2,5_30 - p2 + p5 <= 487
 R427: - 31 x2,5_31 - p2 + p5 >= 0
 R428: 457 x2,5_31 - p2 + p5 <= 488
 R429: - 40 x2,5_40 - p2 + p5 >= 0
 R430: 457 x2,5_40 - p2 + p5 <= 497
 R431: - 45 x2,5_45 - p2 + p5 >= 0
 R432: 457 x2,5_45 - p2 + p5 <= 502
 R433: - 58 x2,5_58 - p2 + p5 >= 0
 R434: 457 x2,5_58 - p2 + p5 <= 515
 R435: - 59 x2,5_59 - p2 + p5 >= 0
 R436: 457 x2,5_59 - p2 + p5 <= 516
 R437: - 62 x2,5_62 - p2 + p5 >= 0
 R438: 457 x2,5_62 - p2 + p5 <= 519
 R439: - 67 x2,5_67 - p2 + p5 >= 0
 R440: 457 x2,5_67 - p2 + p5 <= 524
 R441: p2 - p6 <= -1
 R442: - 3 x2,6_3 - p2 + p6 >= 0
 R443: 457 x2,6_3 - p2 + p6 <= 460
 R444: - 8 x2,6_8 - p2 + p6 >= 0
 R445: 457 x2,6_8 - p2 + p6 <= 465
 R446: - 9 x2,6_9 - p2 + p6 >= 0
 R447: 457 x2,6_9 - p2 + p6 <= 466
 R448: - 13 x2,6_13 - p2 + p6 >= 0
 R449: 457 x2,6_13 - p2 + p6 <= 470
 R450: - 14 x2,6_14 - p2 + p6 >= 0
 R451: 457 x2,6_14 - p2 + p6 <= 471
 R452: - 18 x2,6_18 - p2 + p6 >= 0
 R453: 457 x2,6_18 - p2 + p6 <= 475
 R454: - 30 x2,6_30 - p2 + p6 >= 0
 R455: 457 x2,6_30 - p2 + p6 <= 487
 R456: - 31 x2,6_31 - p2 + p6 >= 0
 R457: 457 x2,6_31 - p2 + p6 <= 488
 R458: - 40 x2,6_40 - p2 + p6 >= 0
 R459: 457 x2,6_40 - p2 + p6 <= 497
 R460: - 45 x2,6_45 - p2 + p6 >= 0
 R461: 457 x2,6_45 - p2 + p6 <= 502
 R462: - 58 x2,6_58 - p2 + p6 >= 0
 R463: 457 x2,6_58 - p2 + p6 <= 515
 R464: - 59 x2,6_59 - p2 + p6 >= 0
 R465: 457 x2,6_59 - p2 + p6 <= 516
 R466: - 62 x2,6_62 - p2 + p6 >= 0
 R467: 457 x2,6_62 - p2 + p6 <= 519
 R468: - 67 x2,6_67 - p2 + p6 >= 0
 R469: 457 x2,6_67 - p2 + p6 <= 524
 R470: p3 - p4 <= -1
 R471: - 3 x3,4_3 - p3 + p4 >= 0
 R472: 457 x3,4_3 - p3 + p4 <= 460
 R473: - 8 x3,4_8 - p3 + p4 >= 0
 R474: 457 x3,4_8 - p3 + p4 <= 465
 R475: - 9 x3,4_9 - p3 + p4 >= 0
 R476: 457 x3,4_9 - p3 + p4 <= 466
 R477: - 13 x3,4_13 - p3 + p4 >= 0
 R478: 457 x3,4_13 - p3 + p4 <= 470
 R479: - 14 x3,4_14 - p3 + p4 >= 0
 R480: 457 x3,4_14 - p3 + p4 <= 471
 R481: - 18 x3,4_18 - p3 + p4 >= 0
 R482: 457 x3,4_18 - p3 + p4 <= 475
 R483: - 30 x3,4_30 - p3 + p4 >= 0
 R484: 457 x3,4_30 - p3 + p4 <= 487
 R485: - 31 x3,4_31 - p3 + p4 >= 0
 R486: 457 x3,4_31 - p3 + p4 <= 488
 R487: - 40 x3,4_40 - p3 + p4 >= 0
 R488: 457 x3,4_40 - p3 + p4 <= 497
 R489: - 45 x3,4_45 - p3 + p4 >= 0
 R490: 457 x3,4_45 - p3 + p4 <= 502
 R491: - 58 x3,4_58 - p3 + p4 >= 0
 R492: 457 x3,4_58 - p3 + p4 <= 515
 R493: - 59 x3,4_59 - p3 + p4 >= 0
 R494: 457 x3,4_59 - p3 + p4 <= 516
 R495: - 62 x3,4_62 - p3 + p4 >= 0
 R496: 457 x3,4_62 - p3 + p4 <= 519
 R497: - 67 x3,4_67 - p3 + p4 >= 0
 R498: 457 x3,4_67 - p3 + p4 <= 524
 R499: p3 - p5 <= -1
 R500: - 3 x3,5_3 - p3 + p5 >= 0
 R501: 457 x3,5_3 - p3 + p5 <= 460
 R502: - 8 x3,5_8 - p3 + p5 >= 0
 R503: 457 x3,5_8 - p3 + p5 <= 465
 R504: - 9 x3,5_9 - p3 + p5 >= 0
 R505: 457 x3,5_9 - p3 + p5 <= 466
 R506: - 13 x3,5_13 - p3 + p5 >= 0
 R507: 457 x3,5_13 - p3 + p5 <= 470
 R508: - 14 x3,5_14 - p3 + p5 >= 0
 R509: 457 x3,5_14 - p3 + p5 <= 471
 R510: - 18 x3,5_18 - p3 + p5 >= 0
 R511: 457 x3,5_18 - p3 + p5 <= 475
 R512: - 30 x3,5_30 - p3 + p5 >= 0
 R513: 457 x3,5_30 - p3 + p5 <= 487
 R514: - 31 x3,5_31 - p3 + p5 >= 0
 R515: 457 x3,5_31 - p3 + p5 <= 488
 R516: - 40 x3,5_40 - p3 + p5 >= 0
 R517: 457 x3,5_40 - p3 + p5 <= 497
 R518: - 45 x3,5_45 - p3 + p5 >= 0
 R519: 457 x3,5_45 - p3 + p5 <= 502
 R520: - 58 x3,5_58 - p3 + p5 >= 0
 R521: 457 x3,5_58 - p3 + p5 <= 515
 R522: - 59 x3,5_59 - p3 + p5 >= 0
 R523: 457 x3,5_59 - p3 + p5 <= 516
 R524: - 62 x3,5_62 - p3 + p5 >= 0
 R525: 457 x3,5_62 - p3 + p5 <= 519
 R526: - 67 x3,5_67 - p3 + p5 >= 0
 R527: 457 x3,5_67 - p3 + p5 <= 524
 R528: p3 - p6 <= -1
 R529: - 3 x3,6_3 - p3 + p6 >= 0
 R530: 457 x3,6_3 - p3 + p6 <= 460
 R531: - 8 x3,6_8 - p3 + p6 >= 0
 R532: 457 x3,6_8 - p3 + p6 <= 465
 R533: - 9 x3,6_9 - p3 + p6 >= 0
 R534: 457 x3,6_9 - p3 + p6 <= 466
 R535: - 13 x3,6_13 - p3 + p6 >= 0
 R536: 457 x3,6_13 - p3 + p6 <= 470
 R537: - 14 x3,6_14 - p3 + p6 >= 0
 R538: 457 x3,6_14 - p3 + p6 <= 471
 R539: - 18 x3,6_18 - p3 + p6 >= 0
 R540: 457 x3,6_18 - p3 + p6 <= 475
 R541: - 30 x3,6_30 - p3 + p6 >= 0
 R542: 457 x3,6_30 - p3 + p6 <= 487
 R543: - 31 x3,6_31 - p3 + p6 >= 0
 R544: 457 x3,6_31 - p3 + p6 <= 488
 R545: - 40 x3,6_40 - p3 + p6 >= 0
 R546: 457 x3,6_40 - p3 + p6 <= 497
 R547: - 45 x3,6_45 - p3 + p6 >= 0
 R548: 457 x3,6_45 - p3 + p6 <= 502
 R549: - 58 x3,6_58 - p3 + p6 >= 0
 R550: 457 x3,6_58 - p3 + p6 <= 515
 R551: - 59 x3,6_59 - p3 + p6 >= 0
 R552: 457 x3,6_59 - p3 + p6 <= 516
 R553: - 62 x3,6_62 - p3 + p6 >= 0
 R554: 457 x3,6_62 - p3 + p6 <= 519
 R555: - 67 x3,6_67 - p3 + p6 >= 0
 R556: 457 x3,6_67 - p3 + p6 <= 524
 R557: p4 - p5 <= -1
 R558: - 3 x4,5_3 - p4 + p5 >= 0
 R559: 457 x4,5_3 - p4 + p5 <= 460
 R560: - 8 x4,5_8 - p4 + p5 >= 0
 R561: 457 x4,5_8 - p4 + p5 <= 465
 R562: - 9 x4,5_9 - p4 + p5 >= 0
 R563: 457 x4,5_9 - p4 + p5 <= 466
 R564: - 13 x4,5_13 - p4 + p5 >= 0
 R565: 457 x4,5_13 - p4 + p5 <= 470
 R566: - 14 x4,5_14 - p4 + p5 >= 0
 R567: 457 x4,5_14 - p4 + p5 <= 471
 R568: - 18 x4,5_18 - p4 + p5 >= 0
 R569: 457 x4,5_18 - p4 + p5 <= 475
 R570: - 30 x4,5_30 - p4 + p5 >= 0
 R571: 457 x4,5_30 - p4 + p5 <= 487
 R572: - 31 x4,5_31 - p4 + p5 >= 0
 R573: 457 x4,5_31 - p4 + p5 <= 488
 R574: - 40 x4,5_40 - p4 + p5 >= 0
 R575: 457 x4,5_40 - p4 + p5 <= 497
 R576: - 45 x4,5_45 - p4 + p5 >= 0
 R577: 457 x4,5_45 - p4 + p5 <= 502
 R578: - 58 x4,5_58 - p4 + p5 >= 0
 R579: 457 x4,5_58 - p4 + p5 <= 515
 R580: - 59 x4,5_59 - p4 + p5 >= 0
 R581: 457 x4,5_59 - p4 + p5 <= 516
 R582: - 62 x4,5_62 - p4 + p5 >= 0
 R583: 457 x4,5_62 - p4 + p5 <= 519
 R584: - 67 x4,5_67 - p4 + p5 >= 0
 R585: 457 x4,5_67 - p4 + p5 <= 524
 R586: p4 - p6 <= -1
 R587: - 3 x4,6_3 - p4 + p6 >= 0
 R588: 457 x4,6_3 - p4 + p6 <= 460
 R589: - 8 x4,6_8 - p4 + p6 >= 0
 R590: 457 x4,6_8 - p4 + p6 <= 465
 R591: - 9 x4,6_9 - p4 + p6 >= 0
 R592: 457 x4,6_9 - p4 + p6 <= 466
 R593: - 13 x4,6_13 - p4 + p6 >= 0
 R594: 457 x4,6_13 - p4 + p6 <= 470
 R595: - 14 x4,6_14 - p4 + p6 >= 0
 R596: 457 x4,6_14 - p4 + p6 <= 471
 R597: - 18 x4,6_18 - p4 + p6 >= 0
 R598: 457 x4,6_18 - p4 + p6 <= 475
 R599: - 30 x4,6_30 - p4 + p6 >= 0
 R600: 457 x4,6_30 - p4 + p6 <= 487
 R601: - 31 x4,6_31 - p4 + p6 >= 0
 R602: 457 x4,6_31 - p4 + p6 <= 488
 R603: - 40 x4,6_40 - p4 + p6 >= 0
 R604: 457 x4,6_40 - p4 + p6 <= 497
 R605: - 45 x4,6_45 - p4 + p6 >= 0
 R606: 457 x4,6_45 - p4 + p6 <= 502
 R607: - 58 x4,6_58 - p4 + p6 >= 0
 R608: 457 x4,6_58 - p4 + p6 <= 515
 R609: - 59 x4,6_59 - p4 + p6 >= 0
 R610: 457 x4,6_59 - p4 + p6 <= 516
 R611: - 62 x4,6_62 - p4 + p6 >= 0
 R612: 457 x4,6_62 - p4 + p6 <= 519
 R613: - 67 x4,6_67 - p4 + p6 >= 0
 R614: 457 x4,6_67 - p4 + p6 <= 524
 R615: p5 - p6 <= -1
 R616: - 3 x5,6_3 - p5 + p6 >= 0
 R617: 457 x5,6_3 - p5 + p6 <= 460
 R618: - 8 x5,6_8 - p5 + p6 >= 0
 R619: 457 x5,6_8 - p5 + p6 <= 465
 R620: - 9 x5,6_9 - p5 + p6 >= 0
 R621: 457 x5,6_9 - p5 + p6 <= 466
 R622: - 13 x5,6_13 - p5 + p6 >= 0
 R623: 457 x5,6_13 - p5 + p6 <= 470
 R624: - 14 x5,6_14 - p5 + p6 >= 0
 R625: 457 x5,6_14 - p5 + p6 <= 471
 R626: - 18 x5,6_18 - p5 + p6 >= 0
 R627: 457 x5,6_18 - p5 + p6 <= 475
 R628: - 30 x5,6_30 - p5 + p6 >= 0
 R629: 457 x5,6_30 - p5 + p6 <= 487
 R630: - 31 x5,6_31 - p5 + p6 >= 0
 R631: 457 x5,6_31 - p5 + p6 <= 488
 R632: - 40 x5,6_40 - p5 + p6 >= 0
 R633: 457 x5,6_40 - p5 + p6 <= 497
 R634: - 45 x5,6_45 - p5 + p6 >= 0
 R635: 457 x5,6_45 - p5 + p6 <= 502
 R636: - 58 x5,6_58 - p5 + p6 >= 0
 R637: 457 x5,6_58 - p5 + p6 <= 515
 R638: - 59 x5,6_59 - p5 + p6 >= 0
 R639: 457 x5,6_59 - p5 + p6 <= 516
 R640: - 62 x5,6_62 - p5 + p6 >= 0
 R641: 457 x5,6_62 - p5 + p6 <= 519
 R642: - 67 x5,6_67 - p5 + p6 >= 0
 R643: 457 x5,6_67 - p5 + p6 <= 524
Bounds
Binaries
 x0,1_3 x0,1_8 x0,1_9 x0,1_13 x0,1_14 x0,1_18 x0,1_30 x0,1_31 x0,1_40
 x0,1_45 x0,1_58 x0,1_59 x0,1_62 x0,1_67 x0,2_3 x0,2_8 x0,2_9 x0,2_13
 x0,2_14 x0,2_18 x0,2_30 x0,2_31 x0,2_40 x0,2_45 x0,2_58 x0,2_59 x0,2_62
 x0,2_67 x0,3_3 x0,3_8 x0,3_9 x0,3_13 x0,3_14 x0,3_18 x0,3_30 x0,3_31
 x0,3_40 x0,3_45 x0,3_58 x0,3_59 x0,3_62 x0,3_67 x0,4_3 x0,4_8 x0,4_9
 x0,4_13 x0,4_14 x0,4_18 x0,4_30 x0,4_31 x0,4_40 x0,4_45 x0,4_58 x0,4_59
 x0,4_62 x0,4_67 x0,5_3 x0,5_8 x0,5_9 x0,5_13 x0,5_14 x0,5_18 x0,5_30
 x0,5_31 x0,5_40 x0,5_45 x0,5_58 x0,5_59 x0,5_62 x0,5_67 x0,6_3 x0,6_8
 x0,6_9 x0,6_13 x0,6_14 x0,6_18 x0,6_30 x0,6_31 x0,6_40 x0,6_45 x0,6_58
 x0,6_59 x0,6_62 x0,6_67 x1,2_3 x1,2_8 x1,2_9 x1,2_13 x1,2_14 x1,2_18
 x1,2_30 x1,2_31 x1,2_40 x1,2_45 x1,2_58 x1,2_59 x1,2_62 x1,2_67 x1,3_3
 x1,3_8 x1,3_9 x1,3_13 x1,3_14 x1,3_18 x1,3_30 x1,3_31 x1,3_40 x1,3_45
 x1,3_58 x1,3_59 x1,3_62 x1,3_67 x1,4_3 x1,4_8 x1,4_9 x1,4_13 x1,4_14
 x1,4_18 x1,4_30 x1,4_31 x1,4_40 x1,4_45 x1,4_58 x1,4_59 x1,4_62 x1,4_67
 x1,5_3 x1,5_8 x1,5_9 x1,5_13 x1,5_14 x1,5_18 x1,5_30 x1,5_31 x1,5_40
 x1,5_45 x1,5_58 x1,5_59 x1,5_62 x1,5_67 x1,6_3 x1,6_8 x1,6_9 x1,6_13
 x1,6_14 x1,6_18 x1,6_30 x1,6_31 x1,6_40 x1,6_45 x1,6_58 x1,6_59 x1,6_62
 x1,6_67 x2,3_3 x2,3_8 x2,3_9 x2,3_13 x2,3_14 x2,3_18 x2,3_30 x2,3_31
 x2,3_40 x2,3_45 x2,3_58 x2,3_59 x2,3_62 x2,3_67 x2,4_3 x2,4_8 x2,4_9
 x2,4_13 x2,4_14 x2,4_18 x2,4_30 x2,4_31 x2,4_40 x2,4_45 x2,4_58 x2,4_59
 x2,4_62 x2,4_67 x2,5_3 x2,5_8 x2,5_9 x2,5_13 x2,5_14 x2,5_18 x2,5_30
 x2,5_31 x2,5_40 x2,5_45 x2,5_58 x2,5_59 x2,5_62 x2,5_67 x2,6_3 x2,6_8
 x2,6_9 x2,6_13 x2,6_14 x2,6_18 x2,6_30 x2,6_31 x2,6_40 x2,6_45 x2,6_58
 x2,6_59 x2,6_62 x2,6_67 x3,4_3 x3,4_8 x3,4_9 x3,4_13 x3,4_14 x3,4_18
 x3,4_30 x3,4_31 x3,4_40 x3,4_45 x3,4_58 x3,4_59 x3,4_62 x3,4_67 x3,5_3
 x3,5_8 x3,5_9 x3,5_13 x3,5_14 x3,5_18 x3,5_30 x3,5_31 x3,5_40 x3,5_45
 x3,5_58 x3,5_59 x3,5_62 x3,5_67 x3,6_3 x3,6_8 x3,6_9 x3,6_13 x3,6_14
 x3,6_18 x3,6_30 x3,6_31 x3,6_40 x3,6_45 x3,6_58 x3,6_59 x3,6_62 x3,6_67
 x4,5_3 x4,5_8 x4,5_9 x4,5_13 x4,5_14 x4,5_18 x4,5_30 x4,5_31 x4,5_40
 x4,5_45 x4,5_58 x4,5_59 x4,5_62 x4,5_67 x4,6_3 x4,6_8 x4,6_9 x4,6_13
 x4,6_14 x4,6_18 x4,6_30 x4,6_31 x4,6_40 x4,6_45 x4,6_58 x4,6_59 x4,6_62
 x4,6_67 x5,6_3 x5,6_8 x5,6_9 x5,6_13 x5,6_14 x5,6_18 x5,6_30 x5,6_31
 x5,6_40 x5,6_45 x5,6_58 x5,6_59 x5,6_62 x5,6_67
Generals
 p0 p1 p2 p3 p4 p5 p6
End
